Set parameter TokenServer to value "hpc-licenses.hpcc.usc.edu"
Set parameter TimeLimit to value 3600
Gurobi Optimizer version 9.5.1 build v9.5.1rc2 (linux64)
Thread count: 20 physical cores, 20 logical processors, using up to 20 threads
Optimize a model with 6007 rows, 4529 columns and 24534 nonzeros
Model fingerprint: 0x54c6e19f
Variable types: 4506 continuous, 23 integer (23 binary)
Coefficient statistics:
  Matrix range     [1e+00, 1e+00]
  Objective range  [3e-03, 1e+00]
  Bounds range     [1e+00, 1e+00]
  RHS range        [1e+00, 4e+01]
Presolve removed 1520 rows and 1515 columns
Presolve time: 0.07s
Presolved: 4487 rows, 3014 columns, 21975 nonzeros
Variable types: 2994 continuous, 20 integer (20 binary)
Found heuristic solution: objective 220.8498795

Root relaxation: objective 2.247996e+02, 1905 iterations, 0.05 seconds (0.08 work units)

    Nodes    |    Current Node    |     Objective Bounds      |     Work
 Expl Unexpl |  Obj  Depth IntInf | Incumbent    BestBd   Gap | It/Node Time

     0     0  224.79963    0    4  220.84988  224.79963  1.79%     -    0s
     0     0  224.72773    0    4  220.84988  224.72773  1.76%     -    0s
     0     0  224.72710    0    4  220.84988  224.72710  1.76%     -    0s
     0     0  224.63860    0    4  220.84988  224.63860  1.72%     -    0s
     0     0  224.63500    0    4  220.84988  224.63500  1.71%     -    0s
     0     0  224.62733    0    7  220.84988  224.62733  1.71%     -    0s
H    0     0                     224.4386684  224.62733  0.08%     -    0s
     0     0  224.62497    0    6  224.43867  224.62497  0.08%     -    0s
     0     0  224.57427    0    4  224.43867  224.57427  0.06%     -    0s
     0     0  224.57427    0    4  224.43867  224.57427  0.06%     -    0s

Cutting planes:
  Gomory: 4
  Implied bound: 44
  MIR: 126
  RLT: 12
  Relax-and-lift: 10

Explored 1 nodes (4380 simplex iterations) in 1.24 seconds (0.73 work units)
Thread count was 20 (of 20 available processors)

Solution count 2: 224.439 220.85 

Optimal solution found (tolerance 1.00e-04)
Best objective 2.244386683999e+02, best bound 2.244479823947e+02, gap 0.0041%



#########node  1
V1.9
#########node  2
0.4166666666666667,0.5833333333333333
#########node  3
1.0,0.0


Total Solving Time 1.6301026344299316
obj value 224.4386683998517
Policy Regret train (Sum) 10.475852471410601
Best Treatment Found train (%) 51.800000000000004
treatment classification acc train (%) 42.4
Policy Regret test (Sum) 171.07608036179815
Best Treatment Found test (%) 53.010000000000005
treatment classification acc test (%) 44.379999999999995
